h -1 2 0
h 3 -4 0
h 5 6 0
h 5 7 0
h -8 9 0
h 10 0
h 11 12 0
h 13 14 0
h 15 16 0
h 8 3 0
h 17 0
h 2 18 -8 0
1 -18 0
h 19 0
h 20 0
h -2 -9 0
h -7 -2 0
h -2 -4 0
h 21 -6 -3 0
1 -21 0
h 16 6 0
h 22 2 5 0
1 -22 0
h -5 8 0
h -23 0
h 24 2 0
h 2 8 0
1 -24 0
h 25 0
h -9 26 2 0
h 5 26 0
1 -26 0
h 27 28 0
